
Gurobi 12.0.1 (mac64[rosetta2], gurobi_cl) logging started Sun Apr  6 02:32:13 2025

Set parameter Username
Set parameter LicenseID to value 2646870
Set parameter TimeLimit to value 1800
Set parameter LogFile to value "gurobi.log"
Using license file /Users/randonov/gurobi.lic
Academic license - for non-commercial use only - expires 2026-04-03

Gurobi Optimizer version 12.0.1 build v12.0.1rc0 (mac64[rosetta2] - Darwin 21.6.0 21H1320)
Copyright (c) 2025, Gurobi Optimization, LLC

Read LP format model from file /var/folders/mg/by6f6n9d2j94g_lk3b9m7nfrjxgrsr/T/8f4ce380da7a4763a2d13f37624cb220-pulp.lp
Reading time = 0.04 seconds
current_value: 23600 rows, 12011 columns, 68460 nonzeros

Using Gurobi shared library /Library/gurobi1201/macos_universal2/lib/libgurobi120.dylib

CPU model: Apple M2
Thread count: 8 physical cores, 8 logical processors, using up to 8 threads

Non-default parameters:
TimeLimit  1800

Optimize a model with 23600 rows, 12011 columns and 68460 nonzeros
Model fingerprint: 0x6e67dd5d
Variable types: 11586 continuous, 425 integer (425 binary)
Coefficient statistics:
  Matrix range     [1e+00, 4e+02]
  Objective range  [1e+00, 1e+00]
  Bounds range     [1e+00, 1e+00]
  RHS range        [2e+00, 1e+03]
Presolve time: 0.11s
Presolved: 23600 rows, 12011 columns, 68459 nonzeros
Variable types: 11586 continuous, 425 integer (425 binary)
